StringID   Type       x          y          demand     ReadyTime  DueDate    ServiceTime
D0         d              75.092    67.360      0.000      0.000     23.983      0.000
S0         f              75.092    67.360      0.000      0.000     23.983      0.000
S1         f              90.300    14.510      0.000      0.000     23.983      0.000
S2         f              15.040    22.250      0.000      0.000     23.983      0.000
C0         c              70.389    87.219      0.026     13.437     17.041      0.063
C1         c              22.855    39.618      0.028     11.244     14.486      0.064
C2         c              64.585    17.520      0.034      8.927     11.740      0.067
C3         c              84.848    44.718      0.045     16.978     19.670      0.072
C4         c              76.667    71.621      0.090      8.000     11.458      0.095

Q Vehicle fuel tank capacity /108.3100/
C Vehicle load capacity /1.1700/
r fuel consumption rate /0.4034/
g inverse refueling rate /0.0071/
v average Velocity /35.1900/
gv charging speed /140.0500/

--------------------
instance_id /563/
number of clusters /2/
working_startTime (hour) /8.00/
working_endTime (hour) /21.67/
instance_endTime (hour) /23.98/
service_time_type /cargoweight/
demand_type /random/
instance_type /R/
instance x range /[0.0, 100.0]/
instance y range /[0.0, 100.0]/
cs_time_to_depot (hour)/[1.5627904969939699,2.1343455946987953]/
